Route #1: 212 8 6 210 19 12 11 199 200 16 114 41 163 18 149 159 5 81
Route #2: 211 170 190 189 20 24 21 165 164 172 50 54 53 154 155 9 92 126 125 156 209 206 173 203
Route #3: 77 95 98 99 105 113 122 120 128 141 106 60 136 153 61 198 202 29 38 17 7
Route #4: 144 146 108 142 101 147 178 179 79 183 90 181 131 152 157 169 177 161 180 196
Route #5: 13 10 22 14 86 2 197 117 187 150 186 185 132 130 100 85 194 43 184 160 139 3 40 115
Route #6: 69 67 34 133 80 87 103 102 104 111 110 148 109 97 124 63 72 62 25 23
Route #7: 158 207 37 57 58 55 33 188 51 56 84 82 119 134 127 116 118 129 140 151 123 74 73
Route #8: 135 171 35 176 42 166 89 167 168 39 121 93 36 59 49 46 44 32 47 28 30 205
Route #9: 182 94 26 204 4 15 195 174 201 65 107 48 138 191 31 1 112 91 208
Route #10: 64 70 88 76 75 96 52 137 71 162 78 145 27 45 83 175 143 66 68 192 193
Cost 81471
Time 301.293
